CONTCAR\(9)                             
   1.00000000000000     
     8.3395004653999987    0.0000000000000000    0.0000000000000000
     0.0000000000000000    8.3395004653999987    0.0000000000000000
     0.0000000000000000    0.0000000000000000   15.5495004653999995
   C    N    Fe   O    H 
    20     4     1     2     1
Direct
  0.1980277899856304  0.9171240063658317  0.3268515013226789
  0.1626040335270318  0.6478029471425302  0.3276440483399767
  0.0800499083457211  0.5016863355643935  0.3285807077655889
  0.1623054070262739  0.3554185747147258  0.3280615279530821
  0.0778108384830318  0.2059964167660553  0.3272749548020357
  0.1979280961572414  0.0859915418717705  0.3270323481280286
  0.3472654866883431  0.1705605153322765  0.3278464429769841
  0.4935558016995785  0.0882530287517511  0.3284199563471333
  0.7892261481980327  0.9173224368770505  0.3270248060934406
  0.9092070093549083  0.7972682344211819  0.3271222900322286
  0.3474355995217380  0.8325746685031135  0.3273756752122523
  0.4936050639371672  0.9150760795076991  0.3280790142130456
  0.6398130967139650  0.8326722226783616  0.3275573405121364
  0.6396970701713940  0.1707225102467120  0.3280767798291393
  0.7890561075254041  0.0861171043598858  0.3271971047161912
  0.9090192463325266  0.2061416046269073  0.3273923045004068
  0.8244630057278357  0.3555470571424308  0.3283591792841563
  0.9068401828901358  0.5017192738950556  0.3287435785578481
  0.8245378953196436  0.6479231486631605  0.3278939397574447
  0.0780246919289809  0.7971731514960823  0.3269949436570556
  0.6599685373527251  0.3351769239976079  0.3279770835533284
  0.6601282179954922  0.6683361785203559  0.3270227272931123
  0.3268910076998566  0.3350991607712146  0.3277815114399871
  0.3271548346718802  0.6680738753424365  0.3268073476829727
  0.4936133474005047  0.5015065771689962  0.3381572763674114
  0.4965876271453382  0.5186894064526371  0.4574306882745915
  0.4869638007919406  0.3709469428254053  0.5018474188410877
  0.3714301754076814  0.3615400999943859  0.5135674825466268
 
  0.00000000E+00  0.00000000E+00  0.00000000E+00
  0.00000000E+00  0.00000000E+00  0.00000000E+00
  0.00000000E+00  0.00000000E+00  0.00000000E+00
  0.00000000E+00  0.00000000E+00  0.00000000E+00
  0.00000000E+00  0.00000000E+00  0.00000000E+00
  0.00000000E+00  0.00000000E+00  0.00000000E+00
  0.00000000E+00  0.00000000E+00  0.00000000E+00
  0.00000000E+00  0.00000000E+00  0.00000000E+00
  0.00000000E+00  0.00000000E+00  0.00000000E+00
  0.00000000E+00  0.00000000E+00  0.00000000E+00
  0.00000000E+00  0.00000000E+00  0.00000000E+00
  0.00000000E+00  0.00000000E+00  0.00000000E+00
  0.00000000E+00  0.00000000E+00  0.00000000E+00
  0.00000000E+00  0.00000000E+00  0.00000000E+00
  0.00000000E+00  0.00000000E+00  0.00000000E+00
  0.00000000E+00  0.00000000E+00  0.00000000E+00
  0.00000000E+00  0.00000000E+00  0.00000000E+00
  0.00000000E+00  0.00000000E+00  0.00000000E+00
  0.00000000E+00  0.00000000E+00  0.00000000E+00
  0.00000000E+00  0.00000000E+00  0.00000000E+00
  0.00000000E+00  0.00000000E+00  0.00000000E+00
  0.00000000E+00  0.00000000E+00  0.00000000E+00
  0.00000000E+00  0.00000000E+00  0.00000000E+00
  0.00000000E+00  0.00000000E+00  0.00000000E+00
  0.00000000E+00  0.00000000E+00  0.00000000E+00
  0.00000000E+00  0.00000000E+00  0.00000000E+00
  0.00000000E+00  0.00000000E+00  0.00000000E+00
  0.00000000E+00  0.00000000E+00  0.00000000E+00
